# Solution for model GasLib-40
# Objective value = 5.9392042194118289e+01
loadshed[innode_1] 0
loadshed[innode_2] 0
loadshed[innode_3] 0
loadshed[innode_4] 0
loadshed[innode_5] 0
loadshed[innode_6] 0
loadshed[innode_7] 0
loadshed[innode_8] 0
loadshed[source_1] -7.9039924527747329e-02
loadshed[source_2] 7.9038993231172472e-02
loadshed[source_3] 3.7568527462853474e-01
loadshed[sink_1] 6.9095944692433264e-01
loadshed[sink_2] 0
loadshed[sink_3] 0
loadshed[sink_4] 0
loadshed[sink_5] 0
loadshed[sink_6] 0
loadshed[sink_7] 0
loadshed[sink_8] 0
loadshed[sink_9] 0
loadshed[sink_10] 0
loadshed[sink_11] 0
loadshed[sink_12] 1
loadshed[sink_13] 0
loadshed[sink_14] 0
loadshed[sink_15] 0
loadshed[sink_16] 0
loadshed[sink_17] 0
loadshed[sink_18] 0
loadshed[sink_19] 0
loadshed[sink_20] 0
loadshed[sink_21] 1
loadshed[sink_22] 0
loadshed[sink_23] 0
loadshed[sink_24] 9.4065587195168987e-01
loadshed[sink_25] 0
loadshed[sink_26] 0
loadshed[sink_27] 0
loadshed[sink_28] 0
loadshed[sink_29] 0
flow[source_1,sink_3] 1.7058572140190392e+02
flow[innode_1,sink_16] 1.6354166666666970e+01
flow[innode_6,sink_13] 15.7810783119355
flow[sink_13,sink_14] -5.7308835473116737e-01
flow[sink_14,sink_10] -1.6927255021397968e+01
flow[sink_25,sink_26] 0
flow[sink_26,sink_9] 6.2931937686692649e+01
flow[sink_9,sink_18] 4.6577771020025978e+01
flow[sink_26,sink_4] -7.9286104353359292e+01
flow[sink_4,sink_20] -1.6956629113921667e+02
flow[sink_18,sink_6] 3.0223604353359310e+01
flow[sink_25,innode_8] -1.3787738806856757e+02
flow[sink_6,sink_7] -7.5388296917323316e+00
flow[sink_6,sink_22] 2.1408267378424977e+01
flow[sink_7,sink_24] 9.7052376079007319e-01
flow[sink_22,sink_1] 5.05410071175831
flow[sink_24,sink_21] 0
flow[sink_21,sink_12] 0
flow[sink_7,sink_5] -2.4863520119189058e+01
flow[sink_5,sink_17] -4.1217686785855705e+01
flow[sink_17,sink_4] -7.3926020119190753e+01
flow[sink_17,sink_8] 1.6354166666668334e+01
flow[sink_3,sink_23] 16.3541666666697
flow[sink_8,sink_20] 0
flow[sink_25,sink_20] 1.8592045780588350e+02
flow[sink_25,sink_15] -80.1783147159187
flow[sink_15,sink_29] -5.4837617269725534e+01
flow[sink_29,sink_28] 1.6354166666667879e+01
flow[sink_29,sink_2] 5.8049030779526177e+01
flow[sink_2,sink_15] 4.1694864112859513e+01
flow[sink_29,innode_7] -1.4559498138258581e+02
flow[innode_4,sink_19] 3.7408711173864354e+01
flow[sink_19,innode_3] 65.9897550213983
flow[innode_4,innode_5] 6.1289377180867646e+01
flow[sink_27,innode_5] -6.1289377180867646e+01
flow[sink_27,sink_19] 4.4935210514200982e+01
flow[sink_10,sink_11] 3.2708333333333641e+01
flow[sink_10,innode_2] 0
flow[sink_10,innode_3] -65.9897550213983
flow[innode_6,sink_25] -15.7810783119355
flow[sink_11,innode_1] 1.6354166666666970e+01
flow[sink_19,innode_2] 0
flow[source_3,innode_4] 98.698088354732
flow[source_2,innode_7] 1.4559498138258581e+02
flow[sink_3,innode_8] 1.3787738806856757e+02
pressure[innode_1] 7.5686600887476530e+01
pressure[innode_2] 7.9497727792407417e+01
pressure[innode_3] 7.9351600952441657e+01
pressure[innode_4] 81.01325
pressure[innode_5] 8.0971091934576137e+01
pressure[innode_6] 7.5123639657948772e+01
pressure[innode_7] 81.01325
pressure[innode_8] 8.0443047099461026e+01
pressure[source_1] 81.01325
pressure[source_2] 81.01325
pressure[source_3] 81.01325
pressure[sink_1] 1.0132500000000002e+00
pressure[sink_2] 7.5648707153749967e+01
pressure[sink_3] 8.0443047099461026e+01
pressure[sink_4] 1.8360599436811391e+01
pressure[sink_5] 1.2464970975823247e+01
pressure[sink_6] 2.0209372294497876e+00
pressure[sink_7] 2.1244273912670475e+00
pressure[sink_8] 1.4918305515958574e+01
pressure[sink_9] 4.5133200343180144e+00
pressure[sink_10] 7.5838302195080075e+01
pressure[sink_11] 7.5686600887476530e+01
pressure[sink_12] 1.01325
pressure[sink_13] 7.5036641210478251e+01
pressure[sink_14] 7.5037666800905370e+01
pressure[sink_15] 7.5512582611821514e+01
pressure[sink_16] 7.4664951052658850e+01
pressure[sink_17] 15.5353907113722
pressure[sink_18] 2.8279974531805
pressure[sink_19] 7.9497727792407417e+01
pressure[sink_20] 3.0800770995007159e+01
pressure[sink_21] 1.01325
pressure[sink_22] 1.3419978040982148e+00
pressure[sink_23] 8.0278329087801239e+01
pressure[sink_24] 1.01325
pressure[sink_25] 7.5123639657948772e+01
pressure[sink_26] 8.27995892772667
pressure[sink_27] 8.0462503354566792e+01
pressure[sink_28] 7.6823872342082922e+01
pressure[sink_29] 77.1191546157001
interdiction[source_1,sink_3] 0
interdiction[innode_1,sink_16] 0
interdiction[innode_6,sink_13] 0
interdiction[sink_13,sink_14] 0
interdiction[sink_14,sink_10] 0
interdiction[sink_25,sink_26] 1
interdiction[sink_26,sink_9] 0
interdiction[sink_9,sink_18] 0
interdiction[sink_26,sink_4] 0
interdiction[sink_4,sink_20] 0
interdiction[sink_18,sink_6] 0
interdiction[sink_25,innode_8] 0
interdiction[sink_6,sink_7] 0
interdiction[sink_6,sink_22] 0
interdiction[sink_7,sink_24] 0
interdiction[sink_22,sink_1] 0
interdiction[sink_24,sink_21] 0
interdiction[sink_21,sink_12] 0
interdiction[sink_7,sink_5] 0
interdiction[sink_5,sink_17] 0
interdiction[sink_17,sink_4] 0
interdiction[sink_17,sink_8] 0
interdiction[sink_3,sink_23] 0
interdiction[sink_8,sink_20] 1
interdiction[sink_25,sink_20] 0
interdiction[sink_25,sink_15] 0
interdiction[sink_15,sink_29] 0
interdiction[sink_29,sink_28] 0
interdiction[sink_29,sink_2] 0
interdiction[sink_2,sink_15] 0
interdiction[sink_29,innode_7] 0
interdiction[innode_4,sink_19] 0
interdiction[sink_19,innode_3] 0
interdiction[innode_4,innode_5] 0
interdiction[sink_27,innode_5] 0
interdiction[sink_27,sink_19] 0
interdiction[sink_10,sink_11] 0
interdiction[sink_10,innode_2] 1
interdiction[sink_10,innode_3] 0
interdiction[innode_6,sink_25] 0
interdiction[sink_11,innode_1] 0
interdiction[sink_19,innode_2] 0
interdiction[source_3,innode_4] 0
interdiction[source_2,innode_7] 0
interdiction[sink_3,innode_8] 0
WCcheckFlow[source_1,sink_3] 39
WCcheckFlow[innode_1,sink_16] 1
WCcheckFlow[innode_6,sink_13] 13
WCcheckFlow[sink_13,sink_14] 12
WCcheckFlow[sink_14,sink_10] 11
WCcheckFlow[sink_25,sink_26] 0
WCcheckFlow[sink_26,sink_9] 12
WCcheckFlow[sink_9,sink_18] 11
WCcheckFlow[sink_26,sink_4] -13
WCcheckFlow[sink_4,sink_20] -14
WCcheckFlow[sink_18,sink_6] 10
WCcheckFlow[sink_25,innode_8] -36
WCcheckFlow[sink_6,sink_7] 7
WCcheckFlow[sink_6,sink_22] 2
WCcheckFlow[sink_7,sink_24] 3
WCcheckFlow[sink_22,sink_1] 1
WCcheckFlow[sink_24,sink_21] 2
WCcheckFlow[sink_21,sink_12] 1
WCcheckFlow[sink_7,sink_5] 3
WCcheckFlow[sink_5,sink_17] 2
WCcheckFlow[sink_17,sink_4] 0
WCcheckFlow[sink_17,sink_8] 1
WCcheckFlow[sink_3,sink_23] 1
WCcheckFlow[sink_8,sink_20] 0
WCcheckFlow[sink_25,sink_20] 15
WCcheckFlow[sink_25,sink_15] 6
WCcheckFlow[sink_15,sink_29] 5
WCcheckFlow[sink_29,sink_28] 1
WCcheckFlow[sink_29,sink_2] 1
WCcheckFlow[sink_2,sink_15] 0
WCcheckFlow[sink_29,innode_7] 2
WCcheckFlow[innode_4,sink_19] -4
WCcheckFlow[sink_19,innode_3] -6
WCcheckFlow[innode_4,innode_5] 2
WCcheckFlow[sink_27,innode_5] -1
WCcheckFlow[sink_27,sink_19] 0
WCcheckFlow[sink_10,sink_11] 3
WCcheckFlow[sink_10,innode_2] 0
WCcheckFlow[sink_10,innode_3] 7
WCcheckFlow[innode_6,sink_25] -14
WCcheckFlow[sink_11,innode_1] 2
WCcheckFlow[sink_19,innode_2] 1
WCcheckFlow[source_3,innode_4] -1
WCcheckFlow[source_2,innode_7] -1
WCcheckFlow[sink_3,innode_8] 37
